(set-logic QF_SLAH)

(declare-datatypes ((data_t 0)) (((c_data_t (sz Int)))))

(declare-heap (Int data_t))

(define-fun hck ((?x Int) (?y Int) (?v Int)) Bool
	(and
		(>= (- ?y ?x) 2) (<= (- ?y ?x) ?v)
		(sep (pto ?x (c_data_t (- ?y ?x))) (blk (+ ?x 1) ?y))
))

(define-fun-rec hls ((?x Int) (?y Int) (?v Int)) Bool
	(or
		(and (= ?x ?y) (_ emp Int data_t))
		(exists ((?w Int)) (sep (hck ?x ?w ?v) (hls ?w ?y ?v)))
))

(declare-const x0 Int)
(declare-const x1 Int)
(declare-const v0 Int)
(declare-const x2 Int)
(declare-const x3 Int)
(declare-const x4 Int)
(declare-const x5 Int)
(declare-const x6 Int)
(declare-const x7 Int)
(declare-const x8 Int)
(declare-const x9 Int)
(declare-const x10 Int)
(declare-const x11 Int)
(declare-const x12 Int)
(declare-const x13 Int)
(declare-const v12 Int)
(declare-const x14 Int)
(declare-const x15 Int)
(declare-const x16 Int)
(declare-const x17 Int)
(declare-const v16 Int)
(declare-const x18 Int)
(declare-const x19 Int)
(declare-const v18 Int)
(declare-const x20 Int)
(declare-const x21 Int)
(declare-const x22 Int)
(declare-const x23 Int)
(declare-const v22 Int)
(declare-const x24 Int)
(declare-const x25 Int)
(declare-const x26 Int)
(declare-const x27 Int)
(declare-const x28 Int)
(declare-const x29 Int)
(declare-const x30 Int)
(declare-const x31 Int)
(declare-const x32 Int)
(declare-const x33 Int)
(declare-const x34 Int)
(declare-const x35 Int)
(declare-const x36 Int)
(declare-const x37 Int)
(declare-const x38 Int)
(declare-const x39 Int)
(declare-const v38 Int)
(declare-const x40 Int)
(declare-const x41 Int)
(declare-const x42 Int)
(declare-const x43 Int)
(declare-const x44 Int)
(declare-const x45 Int)
(declare-const x46 Int)
(declare-const x47 Int)
(declare-const x48 Int)
(declare-const x49 Int)
(declare-const x50 Int)
(declare-const x51 Int)
(declare-const x52 Int)
(declare-const x53 Int)
(declare-const x54 Int)
(declare-const x55 Int)
(declare-const v54 Int)
(declare-const x56 Int)
(declare-const x57 Int)
(declare-const x58 Int)
(declare-const x59 Int)
(declare-const v58 Int)
(declare-const x60 Int)
(declare-const x61 Int)
(declare-const x62 Int)
(declare-const x63 Int)
(declare-const v62 Int)
(declare-const x64 Int)
(declare-const x65 Int)
(declare-const x66 Int)
(declare-const x67 Int)
(declare-const x68 Int)
(declare-const x69 Int)
(declare-const x70 Int)
(declare-const x71 Int)
(declare-const v70 Int)
(declare-const x72 Int)
(declare-const x73 Int)
(declare-const v72 Int)
(declare-const x74 Int)
(declare-const x75 Int)
(declare-const x76 Int)
(declare-const x77 Int)
(declare-const x78 Int)
(declare-const x79 Int)
(declare-const x80 Int)
(declare-const x81 Int)
(declare-const x82 Int)
(declare-const x83 Int)
(declare-const v82 Int)
(declare-const x84 Int)
(declare-const x85 Int)
(declare-const x86 Int)
(declare-const x87 Int)
(declare-const v86 Int)
(declare-const x88 Int)
(declare-const x89 Int)
(declare-const x90 Int)
(declare-const x91 Int)
(declare-const x92 Int)
(declare-const x93 Int)
(declare-const x94 Int)
(declare-const x95 Int)
(declare-const x96 Int)
(declare-const x97 Int)
(declare-const x98 Int)
(declare-const x99 Int)
(declare-const x100 Int)
(declare-const x101 Int)
(declare-const x102 Int)
(declare-const x103 Int)
(declare-const x104 Int)
(declare-const x105 Int)
(declare-const x106 Int)
(declare-const x107 Int)
(declare-const v106 Int)
(declare-const x108 Int)
(declare-const x109 Int)
(declare-const v108 Int)
(declare-const x110 Int)
(declare-const x111 Int)
(declare-const x112 Int)
(declare-const x113 Int)
(declare-const x114 Int)
(declare-const x115 Int)
(declare-const x116 Int)
(declare-const x117 Int)
(declare-const v116 Int)
(declare-const x118 Int)
(declare-const x119 Int)
(declare-const x120 Int)
(declare-const x121 Int)
(declare-const x122 Int)
(declare-const x123 Int)
(declare-const v122 Int)
(declare-const x124 Int)
(declare-const x125 Int)
(declare-const v124 Int)
(declare-const x126 Int)
(declare-const x127 Int)
(declare-const x128 Int)
(declare-const x129 Int)
(declare-const v128 Int)
(declare-const x130 Int)
(declare-const x131 Int)
(declare-const x132 Int)
(declare-const x133 Int)
(declare-const v132 Int)
(declare-const x134 Int)
(declare-const x135 Int)
(declare-const x136 Int)
(declare-const x137 Int)
(declare-const v136 Int)
(declare-const x138 Int)
(declare-const x139 Int)
(declare-const x140 Int)
(declare-const x141 Int)
(declare-const x142 Int)
(declare-const x143 Int)
(declare-const x144 Int)
(declare-const x145 Int)
(declare-const v144 Int)
(declare-const x146 Int)
(declare-const x147 Int)
(declare-const x148 Int)
(declare-const x149 Int)
(declare-const x150 Int)
(declare-const x151 Int)
(declare-const x152 Int)
(declare-const x153 Int)
(declare-const x154 Int)
(declare-const x155 Int)
(declare-const x156 Int)
(declare-const x157 Int)
(declare-const x158 Int)
(declare-const x159 Int)
(declare-const v158 Int)
(declare-const x160 Int)
(declare-const x161 Int)
(declare-const x162 Int)
(declare-const x163 Int)
(declare-const x164 Int)
(declare-const x165 Int)
(declare-const v164 Int)
(declare-const x166 Int)
(declare-const x167 Int)
(declare-const v166 Int)
(declare-const x168 Int)
(declare-const x169 Int)

(assert(and
(< x10 x30) (distinct x37 x50) (distinct x105 x13) (= x92 x97) (< x62 x70) (= x110 x106) (= x43 x20) (< x154 x93) (< x28 x84) (= x67 x90) (< x24 x103) (< x61 x158) (< x134 x145) (= x65 x6) (= x6 x64) (< x23 x157) (= x128 x11) (< x133 x128) 
(sep
(hls x0 x1 v0)
(blk x2 x3)
(blk x4 x5)
(pto x6 (c_data_t x7))
(blk x8 x9)
(blk x10 x11)
(hls x12 x13 v12)
(blk x14 x15)
(hls x16 x17 v16)
(hls x18 x19 v18)
(pto x20 (c_data_t x21))
(hls x22 x23 v22)
(blk x24 x25)
(pto x26 (c_data_t x27))
(blk x28 x29)
(pto x30 (c_data_t x31))
(pto x32 (c_data_t x33))
(pto x34 (c_data_t x35))
(blk x36 x37)
(hls x38 x39 v38)
(blk x40 x41)
(pto x42 (c_data_t x43))
(blk x44 x45)
(blk x46 x47)
(pto x48 (c_data_t x49))
(blk x50 x51)
(blk x52 x53)
(hls x54 x55 v54)
(pto x56 (c_data_t x57))
(hls x58 x59 v58)
(pto x60 (c_data_t x61))
(hls x62 x63 v62)
(blk x64 x65)
(pto x66 (c_data_t x67))
(blk x68 x69)
(hls x70 x71 v70)
(hls x72 x73 v72)
(pto x74 (c_data_t x75))
(pto x76 (c_data_t x77))
(pto x78 (c_data_t x79))
(pto x80 (c_data_t x81))
(hls x82 x83 v82)
(pto x84 (c_data_t x85))
(hls x86 x87 v86)
(blk x88 x89)
(pto x90 (c_data_t x91))
(blk x92 x93)
(pto x94 (c_data_t x95))
(blk x96 x97)
(pto x98 (c_data_t x99))
(blk x100 x101)
(blk x102 x103)
(pto x104 (c_data_t x105))
(hls x106 x107 v106)
(hls x108 x109 v108)
(pto x110 (c_data_t x111))
(pto x112 (c_data_t x113))
(blk x114 x115)
(hls x116 x117 v116)
(pto x118 (c_data_t x119))
(blk x120 x121)
(hls x122 x123 v122)
(hls x124 x125 v124)
(pto x126 (c_data_t x127))
(hls x128 x129 v128)
(pto x130 (c_data_t x131))
(hls x132 x133 v132)
(blk x134 x135)
(hls x136 x137 v136)
(pto x138 (c_data_t x139))
(pto x140 (c_data_t x141))
(blk x142 x143)
(hls x144 x145 v144)
(pto x146 (c_data_t x147))
(pto x148 (c_data_t x149))
(pto x150 (c_data_t x151))
(pto x152 (c_data_t x153))
(blk x154 x155)
(blk x156 x157)
(hls x158 x159 v158)
(pto x160 (c_data_t x161))
(pto x162 (c_data_t x163))
(hls x164 x165 v164)
(hls x166 x167 v166)
(blk x168 x169)
)))

(check-sat)